0 3085
13 3049
25 3048
31 3033
35 3021
47 2982
54 2974
55 2960
56 2929
70 2902
73 2891
77 2837
133 2824
182 2796
185 2777
193 2765
260 2753
296 2749
521 2745
1546 2740
1730 2735
18100 2729
25205 2724
